nodesNumber = 20;
minColorsNumber = 3;
maxClique = [1, 2, 3];

edges = array2d(1..20, 1..20, [
  false, false, false, false, false, true, true, true, false, true, true, false, false, false, true, true, true, true, false, false, false, false, false, false, false, false, false, true, true, false, false, true, false, false, false, false, false, false, false, false, false, false, false, false, false, false, true, true, false, false, false, false, false, true, false, false, false, true, false, true, false, false, false, false, false, false, false, false, true, false, true, true, true, true, true, true, false, false, false, true, false, false, false, false, false, false, false, false, true, true, false, true, false, false, false, false, false, true, false, false, true, false, false, false, false, false, true, false, false, false, false, false, false, true, false, false, false, false, true, false, true, false, true, false, false, true, false, false, false, false, false, false, true, false, false, true, false, false, false, false, true, true, true, false, false, false, false, false, true, false, false, false, false, false, true, true, true, false, false, false, false, true, false, true, true, false, false, true, false, false, true, true, true, false, false, false, false, true, true, true, true, false, false, false, true, false, false, false, false, false, true, true, true, false, false, false, true, false, false, true, true, false, false, true, false, false, false, false, true, true, false, false, true, false, false, true, false, false, false, false, false, true, false, true, true, false, false, false, true, true, false, false, true, false, false, false, true, false, false, false, false, false, false, true, false, false, true, false, true, true, true, true, false, true, true, false, false, false, false, true, false, false, true, true, false, true, false, false, false, false, false, false, true, false, false, false, false, true, false, false, true, false, false, true, false, false, false, true, false, false, false, false, true, false, false, true, false, false, false, false, true, false, false, true, false, false, true, true, false, false, true, false, false, false, true, false, true, false, false, false, true, false, false, false, false, false, false, true, false, true, false, true, false, false, false, true, false, false, true, false, true, false, true, false, true, false, false, false, true, false, false, false, false, true, false, false, false, false, false, false, false, false, false, false, false, true, false, false, true, false, false, false, false, false, false, false, true, false, false, false, false, false, true, true, false, false, false, false, true, true, false, false, true, false, false, false, false, false, false, false
]);
